language ESSENCE' 1.0
$ Minion SolverNodes: 3
$ Minion SolverTotalTime: 0.037147
$ Minion SolverTimeOut: 0
$ Savile Row TotalTime: 0.198
letting M be [[3, 7, 5, 0], 
[3, 5, 0, -1], 
[3, 0, -1, -1], 
[0, -1, -1, -1]]
